c FILE /home/rafael/Documents/HappySet/MIHS/inputs/happygen/output/graph_d_regular_k7_p0.3_v100_20241127_084101.txt
c SOURCE This is a d-regular graph formed for the happy graph colouring problem.
c DESCRIPTION It was generated using the problem generator of Rhyd Lewis
c
c GRAPH STATS
c Seed                             = 311556463
c Number of Nodes                  = 100
c Number of colours k              = 7
c Number of pre-assignments        = 30
c Degree of all vertices           = 6
c Density                          = 0.0606061
c 
c The degrees of nodes 1 to 100, respectively, are as follows 
c [6, 6, 6, 6, 6, 6, 6, 6, 6, 6, 6, 6, 6, 6, 6, 6, 6, 6, 6, 6, 6, 6, 6, 6, 6, 6, 
c  6, 6, 6, 6, 6, 6, 6, 6, 6, 6, 6, 6, 6, 6, 6, 6, 6, 6, 6, 6, 6, 6, 6, 6, 6, 
c  6, 6, 6, 6, 6, 6, 6, 6, 6, 6, 6, 6, 6, 6, 6, 6, 6, 6, 6, 6, 6, 6, 6, 6, 6, 
c  6, 6, 6, 6, 6, 6, 6, 6, 6, 6, 6, 6, 6, 6, 6, 6, 6, 6, 6, 6, 6, 6, 6, 6] 
c  
p edge 100 300 7
e 1 18
e 1 28
e 1 75
e 1 89
e 1 97
e 1 100
e 2 13
e 2 19
e 2 28
e 2 86
e 2 90
e 2 98
e 3 29
e 3 31
e 3 57
e 3 62
e 3 91
e 3 93
e 4 17
e 4 30
e 4 39
e 4 53
e 4 54
e 4 92
e 5 7
e 5 51
e 5 66
e 5 73
e 5 76
e 5 79
e 6 33
e 6 44
e 6 67
e 6 77
e 6 84
e 6 94
e 7 10
e 7 45
e 7 83
e 7 93
e 7 97
e 8 28
e 8 37
e 8 42
e 8 67
e 8 69
e 8 77
e 9 17
e 9 25
e 9 26
e 9 47
e 9 61
e 9 80
e 10 21
e 10 26
e 10 58
e 10 67
e 10 89
e 11 18
e 11 28
e 11 62
e 11 72
e 11 80
e 11 84
e 12 24
e 12 32
e 12 34
e 12 60
e 12 72
e 12 95
e 13 22
e 13 26
e 13 68
e 13 86
e 13 95
e 14 17
e 14 21
e 14 34
e 14 41
e 14 53
e 14 57
e 15 36
e 15 50
e 15 66
e 15 70
e 15 72
e 15 100
e 16 35
e 16 47
e 16 63
e 16 64
e 16 87
e 16 97
e 17 30
e 17 37
e 17 54
e 18 26
e 18 58
e 18 83
e 18 92
e 19 21
e 19 24
e 19 49
e 19 57
e 19 82
e 20 22
e 20 32
e 20 71
e 20 84
e 20 90
e 20 99
e 21 56
e 21 85
e 21 96
e 22 35
e 22 54
e 22 62
e 22 93
e 23 35
e 23 41
e 23 46
e 23 78
e 23 98
e 23 100
e 24 30
e 24 37
e 24 65
e 24 68
e 25 34
e 25 37
e 25 54
e 25 87
e 25 96
e 26 77
e 26 99
e 27 40
e 27 47
e 27 50
e 27 66
e 27 74
e 27 100
e 28 34
e 28 83
e 29 43
e 29 52
e 29 56
e 29 63
e 29 89
e 30 39
e 30 54
e 30 59
e 31 51
e 31 60
e 31 68
e 31 88
e 31 92
e 32 49
e 32 59
e 32 75
e 32 98
e 33 51
e 33 56
e 33 81
e 33 84
e 33 99
e 34 49
e 34 77
e 35 60
e 35 79
e 35 100
e 36 41
e 36 53
e 36 78
e 36 81
e 36 82
e 37 59
e 37 74
e 38 45
e 38 57
e 38 71
e 38 81
e 38 91
e 38 94
e 39 43
e 39 64
e 39 75
e 39 93
e 40 45
e 40 61
e 40 73
e 40 74
e 40 82
e 41 42
e 41 44
e 41 65
e 42 50
e 42 65
e 42 67
e 42 75
e 43 51
e 43 84
e 43 86
e 43 97
e 44 73
e 44 85
e 44 96
e 44 97
e 45 62
e 45 76
e 45 94
e 46 47
e 46 62
e 46 72
e 46 89
e 46 98
e 47 78
e 47 95
e 48 50
e 48 58
e 48 59
e 48 61
e 48 92
e 48 96
e 49 53
e 49 55
e 49 72
e 50 51
e 50 95
e 51 85
e 52 58
e 52 60
e 52 69
e 52 70
e 52 94
e 53 64
e 53 96
e 54 86
e 55 59
e 55 70
e 55 71
e 55 75
e 55 88
e 56 76
e 56 93
e 56 97
e 57 61
e 57 94
e 58 88
e 58 99
e 59 95
e 60 70
e 60 88
e 61 68
e 61 73
e 62 92
e 63 74
e 63 84
e 63 91
e 63 100
e 64 67
e 64 69
e 64 82
e 65 85
e 65 88
e 65 96
e 66 82
e 66 83
e 66 86
e 67 90
e 68 85
e 68 93
e 69 77
e 69 80
e 69 90
e 70 71
e 70 76
e 71 79
e 71 81
e 72 81
e 73 79
e 73 81
e 74 78
e 74 98
e 75 89
e 76 79
e 76 87
e 77 78
e 78 91
e 79 89
e 80 91
e 80 92
e 80 94
e 82 99
e 83 86
e 83 87
e 85 91
e 87 88
e 87 90
e 90 99
e 95 98
n 3 5
n 7 4
n 9 7
n 16 7
n 17 7
n 18 3
n 19 5
n 20 1
n 24 5
n 28 6
n 33 4
n 34 6
n 39 4
n 41 7
n 43 4
n 45 4
n 47 7
n 50 5
n 54 7
n 56 4
n 57 5
n 58 3
n 71 1
n 72 5
n 73 2
n 74 5
n 88 3
n 90 1
n 92 3
n 100 7
